n=8;
hearts=15;
clubs=22;
spades=9;
diamonds=34;
blocked=8;
m=array2d(1..n, 1..n,[
	_,2,5,_,_,_,_,4,
	_,_,_,_,_,3,_,_,
	3,3,4,5,1,_,5,_,
	5,_,_,_,_,2,4,_,
	_,_,_,2,1,2,_,_,
	_,3,_,_,5,_,_,_,
	_,_,_,_,_,5,_,_,
	3,5,4,5,_,1,_,4
]);
